NPROCS=0
This instance is clustered!
Gurobi Optimizer version 9.0.0 build v9.0.0rc2 (linux64)
Optimize a model with 22 rows, 122 columns and 242 nonzeros
Model fingerprint: 0x5b45d4b2
Variable types: 1 continuous, 121 integer (121 binary)
Coefficient statistics:
  Matrix range     [1e+00, 1e+00]
  Objective range  [1e+00, 7e+01]
  Bounds range     [1e+00, 1e+00]
  RHS range        [1e+00, 1e+00]
Presolve removed 2 rows and 30 columns
Presolve time: 0.00s
Presolved: 20 rows, 92 columns, 182 nonzeros
Variable types: 1 continuous, 91 integer (91 binary)

Root relaxation: objective 1.524252e+02, 17 iterations, 0.00 seconds

    Nodes    |    Current Node    |     Objective Bounds      |     Work
 Expl Unexpl |  Obj  Depth IntInf | Incumbent    BestBd   Gap | It/Node Time

     0     0  157.06469    0   12          -  157.06469      -     -    0s
H    0     0                     242.9864348  157.06469  35.4%     -    0s
H    0     0                     201.8495087  157.06469  22.2%     -    0s
     0     0  161.38273    0   24  201.84951  161.38273  20.0%     -    0s
H    0     0                     201.6673713  161.38273  20.0%     -    0s
     0     0  162.00600    0   24  201.66737  162.00600  19.7%     -    0s
     0     2  162.00600    0   24  201.66737  162.00600  19.7%     -    0s

Cutting planes:
  Gomory: 1
  Lazy constraints: 72

Explored 380 nodes (1725 simplex iterations) in 0.11 seconds
Thread count was 12 (of 12 available processors)

Solution count 3: 201.667 201.85 242.986 

Optimal solution found (tolerance 1.00e-04)
Best objective 2.016673713106e+02, best bound 2.016673713106e+02, gap 0.0000%

User-callback calls 969, time in user-callback 0.00 sec
/projects/academic/josewalt/caigao/RRARP_BD/BendersDecomp/ret/model_outs/n_9_m_1_algo_3.out
 =====>>>>> Solution is written to file in <../ret/model_outs> !!!
===>> All Done!
